SumColouring/JavaBacktracker/RandomInstances/34_0.25_2.col
c File: instances/34_0.25_2.col
c
c Description: Random graph of size 34 vertices and P(0.25) of edges between any two vertices.
p col 34 561
e 1 5
e 1 10
e 1 19
e 1 22
e 2 4
e 2 7
e 2 11
e 2 14
e 2 17
e 2 19
e 2 20
e 2 23
e 2 26
e 2 30
e 2 33
e 3 5
e 3 10
e 3 23
e 3 26
e 3 27
e 3 33
e 4 7
e 4 12
e 4 23
e 4 33
e 5 13
e 5 17
e 5 23
e 5 24
e 5 32
e 5 33
e 5 34
e 6 8
e 6 9
e 6 14
e 6 26
e 6 33
e 7 13
e 7 14
e 7 18
e 7 26
e 7 33
e 8 13
e 8 25
e 8 27
e 8 28
e 9 12
e 9 13
e 9 14
e 9 17
e 9 19
e 9 23
e 9 28
e 9 34
e 10 14
e 10 15
e 10 20
e 10 26
e 10 27
e 10 30
e 10 31
e 10 32
e 10 34
e 11 22
e 11 24
e 12 16
e 12 17
e 12 22
e 12 27
e 12 30
e 13 20
e 13 25
e 13 26
e 14 15
e 14 25
e 14 30
e 14 31
e 14 32
e 14 34
e 15 16
e 15 19
e 15 25
e 15 27
e 15 30
e 16 34
e 17 23
e 17 24
e 17 26
e 17 28
e 17 32
e 17 33
e 18 28
e 19 23
e 19 29
e 19 31
e 19 32
e 20 21
e 20 23
e 20 24
e 20 29
e 21 22
e 21 28
e 21 32
e 22 29
e 23 28
e 24 25
e 24 29
e 24 30
e 24 31
e 24 34
e 25 28
e 25 32
e 26 30
e 26 33
e 27 33
e 28 32
e 30 31